Complete 20
SECTION Graph
Nodes 20
Edges 190
E 1 2 14
E 1 3 8
E 1 4 22
E 1 5 38
E 1 6 25
E 1 7 33
E 1 8 29
E 1 9 43
E 1 10 1
E 1 11 35
E 1 12 14
E 1 13 16
E 1 14 20
E 1 15 3
E 1 16 16
E 1 17 40
E 1 18 35
E 1 19 7
E 1 10 34
E 2 3 29
E 2 4 46
E 2 5 39
E 2 6 41
E 2 7 28
E 2 8 23
E 2 9 26
E 2 10 39
E 2 11 9
E 2 12 31
E 2 13 17
E 2 14 42
E 2 15 9
E 2 16 5
E 2 17 28
E 2 18 45
E 2 19 5
E 2 20 9
E 3 4 37
E 3 5 1
E 3 6 26
E 3 7 44
E 3 8 5
E 3 9 19
E 3 10 5
E 3 11 1
E 3 12 35
E 3 13 6
E 3 14 22
E 3 15 47
E 3 16 28
E 3 17 8
E 3 18 38
E 3 19 23
E 3 20 47
E 4 5 23
E 4 6 26
E 4 7 3
E 4 8 19
E 4 9 19
E 4 10 32
E 4 11 26
E 4 12 3
E 4 13 3
E 4 14 21
E 4 15 26
E 4 16 19
E 4 17 32
E 4 18 49
E 4 19 44
E 4 20 41
E 5 6 33
E 5 7 20
E 5 8 21
E 5 9 24
E 5 10 11
E 5 11 30
E 5 12 43
E 5 13 43
E 5 14 47
E 5 15 8
E 5 16 22
E 5 17 1
E 5 18 25
E 5 19 33
E 5 20 14
E 6 21 21
E 6 8 12
E 6 9 4
E 6 10 32
E 6 11 42
E 6 12 38
E 6 13 38
E 6 14 29
E 6 15 25
E 6 16 39
E 6 17 46
E 6 18 3
E 6 19 31
E 6 20 36
E 7 8 16
E 7 9 23
E 7 10 46
E 7 11 22
E 7 12 15
E 7 13 23
E 7 14 34
E 7 15 26
E 7 16 18
E 7 17 26
E 7 18 15
E 7 19 26
E 7 20 46
E 8 9 25
E 8 10 36
E 8 11 34
E 8 12 12
E 8 13 35
E 8 14 41
E 8 15 32
E 8 16 30
E 8 17 50
E 8 18 26
E 8 19 3
E 8 20 15
E 9 10 11
E 9 11 35
E 9 12 44
E 9 13 1
E 9 14 15
E 9 15 8
E 9 16 19
E 9 17 25
E 9 18 3
E 9 19 4
E 9 20 46
E 10 11 22
E 10 12 41
E 10 13 32
E 10 14 31
E 10 15 45
E 10 16 12
E 10 17 49
E 10 18 25
E 10 19 12
E 10 20 15
E 11 12 20
E 11 13 25
E 11 14 22
E 11 15 32
E 11 16 22
E 11 17 47
E 11 18 31
E 11 19 2
E 11 20 37
E 12 13 20
E 12 14 27
E 12 15 5
E 12 16 19
E 12 17 30
E 12 18 34
E 12 19 29
E 12 20 28
E 13 14 32
E 13 15 49
E 13 16 39
E 13 17 27
E 13 18 41
E 13 19 49
E 13 20 24
E 14 15 28
E 14 16 18
E 14 17 2
E 14 18 11
E 14 19 47
E 14 20 43
E 15 16 32
E 15 17 36
E 15 18 49
E 15 19 41
E 15 20 7
E 16 17 21
E 16 18 6
E 16 19 28
E 16 20 45
E 17 18 15
E 17 19 35
E 17 20 34
E 18 19 14
E 18 20 6
E 19 20 46
END

SECTION Terminals
Terminals 5
T 14
T 4
T 1
T 20
T 12
END

EOF